320
Lattice="15.763378822373221 0.0 0.0 0.0 15.763378822373221 0.0 0.0 0.0 15.763378822373221" Properties=species:S:1:pos:R:3 pbc="T T T"
C        1.39883550       2.34078716       2.45840404
H        0.45504924       2.16138263       1.94415714
H        1.31249360       3.23548502       3.07438228
H        2.19173801       2.48046600       1.72412630
H        1.63606115       1.48581500       3.09095045
C        2.48478821       2.34384129       5.32337795
H        1.69112036       2.22708085       6.06082403
H        2.54841978       1.44366923       4.71263280
H        3.43406815       2.50435697       5.83374124
H        2.26554455       3.20025813       4.68631375
C        1.58696510       2.39979187       9.90112943
H        2.38822553       1.69731436       9.67336762
H        1.73913659       2.81371047      10.89756488
H        0.62886199       1.88198318       9.86533902
H        1.59163630       3.20615949       9.16824621
C        1.52622997       2.17214365      13.96697177
H        1.30512700       1.32767241      13.31478302
H        1.78159277       1.80621216      14.96108060
H        0.65222368       2.81967068      14.03170287
H        2.36597645       2.73501934      13.56032059
C        2.53889157       6.13062470       2.14830335
H        1.47686236       6.09551983       2.38961222
H        2.98697113       7.01098948       2.60825003
H        2.66419444       6.18215253       1.06709456
H        3.02753836       5.23383697       2.52825658
C        2.23227770       5.94124229       5.68692487
H        1.30631918       5.41225757       5.91085421
H        2.08211389       7.01143267       5.82660934
H        2.52115033       5.74671100       4.65441407
H        3.01952739       5.59456793       6.35582185
C        1.80230024       5.99583344       9.64151624
H        2.30428110       5.02935118       9.60552152
H        1.98936281       6.53703456       8.71443625
H        2.18537395       6.57298684      10.48265646
H        0.73018309       5.84396120       9.76345074
C        2.43182554       5.58869819      13.93859489
H        3.37322306       5.04542107      13.86120602
H        1.73843202       5.02666184      14.56364604
H        2.00337242       5.71634669      12.94486346
H        2.61227465       6.56636317      14.38466405
C        1.66229099      10.29721153       1.44853791
H        1.78232582      10.77255497       2.42168159
H        0.70763384      10.59362798       1.01479213
H        1.68648511       9.21436061       1.56777260
H        2.47271918      10.60830255       0.78990531
C        2.32075273       9.53366260       5.38164271
H        2.06878188      10.52202673       4.99821683
H        3.40343511       9.41055462       5.38505811
H        1.87056476       8.77178956       4.74583721
H        1.94022917       9.43027948       6.39745870
C        2.06539559       9.61411958      10.05545330
H        2.57467273       8.90194308       9.40675474
H        1.11049561       9.19688968      10.37397113
H        1.89281430      10.54221119       9.51118311
H        2.68359972       9.81543436      10.92990420
C        1.50401780      10.00475032      14.29796140
H        1.60280832      10.49950598      15.26379039
H        2.39381295      10.19652631      13.69891638
H        0.62696392      10.39153030      13.77974705
H        1.39248601       8.93143868      14.44939176
C        1.88202364      13.93507923       2.55575189
H        1.17887605      14.75123298       2.39190776
H        2.25588956      13.57955510       1.59596272
H        1.37780262      13.11971585       3.07374039
H        2.71552633      14.28981299       3.16139666
C        1.96737533      13.82761087       6.24913818
H        2.73706134      14.37598713       5.70670358
H        1.60837026      13.00222431       5.63495517
H        1.13852574      14.49659268       6.47900787
H        2.38554396      13.43563936       7.17588609
C        2.48122639      13.33770926      10.12286567
H        1.60658500      13.39367636      10.77035195
H        2.47187839      12.39256508       9.58066324
H        3.38547332      13.40058452      10.72764047
H        2.46096886      14.16401108       9.41280700
C        2.40033709      14.36185095      14.33349476
H        2.87905344      15.25169534      14.74138690
H        1.64534031      14.00286588      15.03240674
H        3.14913388      13.58575569      14.17745666
H        1.92782073      14.60708688      13.38272876
C        6.29239462       1.94676301       1.65401932
H        6.56944966       1.54554481       2.62851039
H        5.27132275       1.64993461       1.41595731
H        6.97020530       1.55739611       0.89485237
H        6.35860075       3.03417650       1.67675722
C        5.95729739       1.90274169       6.42083875
H        5.08904319       2.55849550       6.36176285
H        5.65853469       0.94111065       6.83722194
H        6.71266203       2.35703564       7.06147097
H        6.36894966       1.75432497       5.42289924
C        5.35367540       2.22959568       9.27989133
H        6.27748174       2.43917507       9.81843260
H        5.13200951       3.05504478       8.60397242
H        4.53671715       2.11347032       9.99155312
H        5.46849320       1.31069254       8.70560720
C        5.39826661       2.37394587      13.28067425
H        5.15976282       3.21891316      13.92605368
H        6.17368355       2.66518258      12.57266428
H        4.50496426       2.06936763      12.73605385
H        5.75465581       1.54232012      13.88792521
C        5.98484087       5.62618390       1.66501758
H        5.31387387       4.87801539       1.24381033
H        6.14367199       5.41733898       2.72262094
H        5.54212692       6.61549790       1.55263187
H        6.93969068       5.59388333       1.14100720
C        5.66102037       6.01308635       5.97521574
H        5.15451692       6.75987978       5.36437846
H        6.26681576       6.51219743       6.73103877
H        6.30227765       5.40029479       5.34225130
H        4.92047116       5.37997338       6.46319444
C        5.80828846       6.28736666      10.00167446
H        5.12426956       5.65280083      10.56453565
H        5.39642038       6.47599915       9.01063922
H        6.77165735       5.78732796       9.90549727
H        5.94080655       7.23333871      10.52602569
C        6.02230927       6.32303553      13.37381635
H        6.36714867       5.62896513      12.60783956
H        4.93934794       6.42552902      13.31011209
H        6.48890588       7.29555789      13.21936176
H        6.29383457       5.94209007      14.35795198
C        6.29278766       9.75207425       2.36033424
H        7.12813030       9.07853127       2.54983593
H        6.18483004       9.90373557       1.28668981
H        6.48098335      10.70954803       2.84530302
H        5.37720695       9.31648215       2.75950820
C        6.09169616       9.58474409       6.15085316
H        5.88671206      10.14284352       5.23768564
H        7.16309314       9.40396425       6.23328818
H        5.56385299       8.63194541       6.12044529
H        5.75312646      10.16022318       7.01199353
C        5.39044205       9.71115229       9.76908691
H        6.46352310       9.71409564       9.57972805
H        5.20160381       9.36141134      10.78367538
H        4.89805960       9.04768308       9.05863881
H        4.99858169      10.72141910       9.65430540
C        5.68528802       9.58000052      14.22225657
H        5.13623382       8.77302819      13.73779448
H        6.17713255      10.19027067      13.46527066
H        6.43436139       9.15865075      14.89212360
H        4.99342434      10.19805246      14.79383754
C        6.49638478      13.57535510       1.59530798
H        6.11073836      12.55624052       1.60242807
H        6.20848051      14.06617538       0.66602064
H        7.58306363      13.55304864       1.67276681
H        6.08325663      14.12595585       2.44001640
C        6.45322814      14.29625898       6.20475970
H        7.12125335      13.67157818       6.79711481
H        6.95239235      15.23414318       5.96273346
H        5.54825385      14.50315197       6.77536044
H        6.19101300      13.77616260       5.28383009
C        6.11232326      14.04668997       9.45848395
H        5.38188374      14.55301195       8.82803607
H        6.60267900      14.77540186      10.10338596
H        6.85700388      13.55785967       8.83089803
H        5.60772642      13.30048638      10.07161576
C        6.00387996      13.43134035      13.82372136
H        5.12248802      14.02565599      14.06310714
H        6.10274419      13.34780243      12.74177143
H        5.89998872      12.43685704      14.25682403
H        6.89029891      13.91504595      14.23318285
C        9.93651946       1.38687257       2.29276280
H       10.03008165       0.84277135       1.35331171
H        9.20824055       2.18909212       2.17690945
H       10.90294681       1.81019142       2.56513698
H        9.60480881       0.70543539       3.07569306
C        9.48266669       2.17439255       5.55080674
H        9.18792187       1.13194879       5.43331263
H        9.90508892       2.54007298       4.61528247
H       10.22805355       2.25417960       6.34162962
H        8.60960243       2.77136884       5.81300224
C        9.34642091       1.97039022      10.14069684
H        9.29123463       1.71562550      11.19872226
H       10.18694835       2.64312597       9.97244517
H        8.42212755       2.46080784       9.83649180
H        9.48537313       1.06200157       9.55512813
C       10.11916019       1.48305953      13.66892828
H       10.28941701       1.24338599      12.61967256
H       10.71509942       0.81907436      14.29450682
H        9.06319565       1.35327966      13.90443721
H       10.40892867       2.51649811      13.85709655
C       10.16649318       6.40228523       1.52991829
H       10.10098714       7.48529734       1.42911109
H       10.83077725       6.00559259       0.76263086
H        9.17488820       5.96595809       1.41284330
H       10.55932014       6.15229289       2.51508791
C       10.01061645       5.90721393       5.51349011
H       10.84935113       5.41704217       6.00707310
H        9.08726197       5.66281502       6.03794606
H        9.94448697       5.56268411       4.48184363
H       10.16136575       6.98631442       5.52709767
C        9.80524172       5.92009833      10.19457006
H       10.31668057       6.85657576       9.97364317
H       10.50522703       5.22402320      10.65594666
H        9.42070201       5.48945343       9.27042583
H        8.97835725       6.11034092      10.87826460
C       10.21640749       5.89808025      14.37071819
H        9.73215952       5.04153011      13.90253645
H       11.19297538       6.05749914      13.91435304
H       10.34023905       5.70763319      15.43644050
H        9.60025601       6.78565854      14.22954278
C        9.82995692      10.22278848       2.09201582
H        9.66155240       9.72374049       3.04593374
H        8.87115686      10.47322013       1.63885492
H       10.38343218       9.55954098       1.42783493
H       10.40368624      11.13465233       2.25543971
C       10.24815271       9.71238688       5.70501777
H       11.08917734      10.26054208       5.28125861
H        9.32635955      10.26446166       5.52369158
H       10.39547387       9.59392231       6.77815848
H       10.18160008       8.73062149       5.23696240
C        9.76063892      10.29844660       9.36362224
H       10.17047669       9.60611136      10.09851903
H       10.57470810      10.83183197       8.87356122
H        9.10680405      11.01301888       9.86287647
H        9.19056685       9.74282420       8.61953222
C        9.64200964      10.20281445      13.46822508
H       10.34005245       9.48064517      13.89080777
H       10.19778590      10.99448588      12.96649062
H        9.03718703      10.63307437      14.26599347
H        8.99301316       9.70305239      12.74960847
C        9.39412295      13.68294519       1.37965114
H        9.65999034      14.67149474       1.00621748
H        9.27277418      13.72398404       2.46175957
H       10.18421624      12.97551493       1.12932458
H        8.45951104      13.36078705       0.92130293
C       10.09303818      14.17258169       6.48091024
H       10.20524223      15.25025174       6.59669409
H        9.04024322      13.93022165       6.33859806
H       10.46374645      13.67073846       7.37427306
H       10.66292084      13.83911492       5.61407574
C       10.41248144      13.79730359      10.15174980
H        9.89023842      14.74412710      10.01700623
H       11.38621406      13.84712932       9.66520015
H        9.82594348      12.99275552       9.70898125
H       10.54752981      13.60520242      11.21581157
C       10.09041689      13.54932272      14.10938928
H       10.35559187      14.56081486      13.80290233
H       10.42040978      12.84131492      13.34965379
H        9.00962405      13.47731466      14.22800658
H       10.57604185      13.31784643      15.05699442
C       13.28901033       1.94224566       1.88593806
H       13.43283790       2.20906922       0.83928282
H       13.29447670       0.85741172       1.98827971
H       12.33365420       2.33500513       2.23292948
H       14.09507252       2.36749658       2.48326024
C       14.30578124       2.18801662       6.29405867
H       14.60961774       1.30049637       6.84845885
H       14.81944300       3.06090925       6.69602687
H       13.22888501       2.32459201       6.38897989
H       14.56517922       2.06606886       5.24276908
C       14.04298749       2.05202840      10.23747580
H       13.23626575       2.75400052      10.44676877
H       14.17428795       1.96045523       9.15963402
H       13.79460040       1.07760778      10.65720987
H       14.96679586       2.41605008      10.68629056
C       13.61627439       1.58148633      13.66488863
H       14.53509181       1.07408312      13.95760845
H       13.83858816       2.32002082      12.89514078
H       13.18430667       2.07974305      14.53236342
H       12.90711090       0.85209832      13.27444188
C       13.35239975       6.17860235       1.71042402
H       14.38180068       6.06285835       2.04851487
H       12.97859171       5.22063541       1.34995867
H       13.31517007       6.90992236       0.90348328
H       12.73403655       6.52099327       2.53973927
C       13.77463029       6.38277782       5.42182885
H       13.82583282       6.79255471       6.43020852
H       13.58187908       7.18700669       4.71229995
H       12.96980053       5.65017311       5.36790506
H       14.72100873       5.90137675       5.17690186
C       13.99961277       5.74908784       9.65100553
H       13.20296660       5.02714630       9.47345649
H       13.57089007       6.67840424      10.02508608
H       14.52879534       5.94274458       8.71835809
H       14.69579907       5.34805624      10.38712147
C       13.23021945       5.51328284      14.24625458
H       12.74314475       4.66543361      13.76534055
H       12.63300778       5.84072226      15.09683674
H       13.32435828       6.33101790      13.53224083
H       14.22036700       5.21595757      14.59060018
C       13.86122875       9.27534533       2.22223480
H       13.03495288       8.98343666       2.86986579
H       13.46707274       9.67162564       1.28683578
H       14.48448490       8.40601131       2.01444042
H       14.45840446      10.04030771       2.71779721
C       13.28898127       9.55229936       5.99920076
H       13.44051888       9.04598871       6.95211957
H       13.77142127       8.98339751       5.20486412
H       13.72248630      10.55094633       6.04552560
H       12.22149862       9.62886488       5.79429375
C       13.38154163       9.95846798      10.08408774
H       13.53669835       8.88254151      10.00874185
H       12.91255657      10.32267847       9.17042910
H       14.34154144      10.45507570      10.22246944
H       12.73537014      10.17357624      10.93471058
C       14.26716788       9.66501147      13.48432178
H       14.08122613       9.11341223      12.56316364
H       13.36148679       9.67618282      14.09011492
H       14.55558367      10.68780105      13.24331101
H       15.07037494       9.18264979      14.04069755
C       13.50466400      13.28773034       1.40044784
H       13.77020050      12.39876169       1.97193142
H       13.34930579      13.01562926       0.35680365
H       14.31051690      14.01795172       1.46934063
H       12.58863281      13.71857870       1.80371566
C       13.32889508      13.73631328       5.78672824
H       12.72856565      13.57799172       4.89123551
H       13.00605170      14.65086834       6.28344703
H       14.37887359      13.82496016       5.50914000
H       13.20208939      12.89143288       6.46309043
C       14.05985926      13.29973049       9.67801716
H       14.05721123      14.19326452      10.30168238
H       13.16713465      13.29020125       9.05326094
H       14.06859939      12.41391973      10.31254950
H       14.94649177      13.30153645       9.04457584
C       13.43121938      14.31908838      13.39402838
H       12.72171435      13.56965819      13.74377880
H       13.56447691      15.07980188      14.16274534
H       13.05002548      14.78395896      12.48520776
H       14.38866080      13.84293448      13.18438160
