640
Lattice="19.86061279577508 0.0 0.0 0.0 19.86061279577508 0.0 0.0 0.0 19.86061279577508" Properties=species:S:1:pos:R:3 pbc="T T T"
C        1.17494819       1.96613801       2.06493000
H        0.23116193       1.78673348       1.55068310
H        1.08860630       2.86083587       2.68090824
H        1.96785071       2.10581685       1.33065226
H        1.41217384       1.11116585       2.69747641
C        2.08709131       1.96870332       4.47135729
H        1.29342346       1.85194288       5.20880337
H        2.15072288       1.06853126       3.86061214
H        3.03637126       2.12921900       4.98172058
H        1.86784766       2.82512016       3.83429309
C        1.33296716       2.01569886       8.31642759
H        2.13422759       1.31322135       8.08866578
H        1.48513865       2.42961746       9.31286305
H        0.37486405       1.49789017       8.28063718
H        1.33763836       2.82206648       7.58354437
C        1.28195285       1.82448634      11.73152116
H        1.06084987       0.98001510      11.07933240
H        1.53731564       1.45855485      12.72562999
H        0.40794655       2.47201337      11.79625226
H        2.12169932       2.38736203      11.32486998
C        2.13253529       1.83929994      15.04487027
H        1.07050608       1.80419507      15.28617914
H        2.58061485       2.71966472      15.50481695
H        2.25783816       1.89082777      13.96366148
H        2.62118208       0.94251221      15.42482351
C        1.87499577       1.68022869      18.01712610
H        0.94903725       1.15124396      18.24105544
H        1.72483197       2.75041907      18.15681057
H        2.16386841       1.48569739      16.98461530
H        2.66224547       1.33355432      18.68602308
C        1.51383734       5.03618451       1.47816191
H        2.01581820       4.06970225       1.44216719
H        1.70089991       5.57738563       0.55108192
H        1.89691105       5.61333790       2.31930213
H        0.44172019       4.88431227       1.60009641
C        2.04260546       4.69421233       5.08748181
H        2.98400298       4.15093521       5.01009293
H        1.34921194       4.13217598       5.71253296
H        1.61415234       4.82186083       4.09375038
H        2.22305456       5.67187730       5.53355097
C        1.39623694       5.33901358       7.83689986
H        1.51627177       5.81435702       8.81004355
H        0.44157979       5.63543003       7.40315409
H        1.42043106       4.25616266       7.95613456
H        2.20666513       5.65010460       7.17826727
C        1.94931015       4.69767266      11.14050089
H        1.69733930       5.68603679      10.75707501
H        3.03199253       4.57456468      11.14391628
H        1.49912218       3.93579962      10.50469539
H        1.56878658       4.59428955      12.15631688
C        1.73482359       4.76525229      15.06625578
H        2.24410072       4.05307579      14.41755723
H        0.77992360       4.34802239      15.38477361
H        1.56224230       5.69334390      14.52198560
H        2.35302772       4.96656707      15.94070668
C        1.26329579       5.09336155      18.62973929
H        1.36208631       5.58811721      19.59556828
H        2.15309094       5.28513755      18.03069427
H        0.38624191       5.48014153      18.11152494
H        1.15176401       4.02004991      18.78116966
C        1.58080080       8.39463097       2.14669707
H        0.87765321       9.21078472       1.98285294
H        1.95466672       8.03910684       1.18690790
H        1.07657978       7.57926759       2.66468557
H        2.41430349       8.74936473       2.75234184
C        1.65249172       8.30436320       5.24894716
H        2.42217773       8.85273947       4.70651256
H        1.29348666       7.47897664       4.63476415
H        0.82364214       8.97334502       5.47881685
H        2.07066036       7.91239169       6.17569507
C        2.08409957       7.89287164       8.50267436
H        1.20945818       7.94883873       9.15016064
H        2.07475157       6.94772746       7.96047193
H        2.98834650       7.95574690       9.10744917
H        2.06384204       8.71917346       7.79261570
C        2.01615682       8.75309675      12.03938118
H        2.49487317       9.64294114      12.44727331
H        1.26116004       8.39411168      12.73829316
H        2.76495361       7.97700149      11.88334308
H        1.54364046       8.99833269      11.08861518
C        1.97517815       8.25538273      14.62969771
H        2.25223320       7.85416453      15.60418877
H        0.95410629       7.95855433      14.39163570
H        2.65298884       7.86601583      13.87053075
H        2.04138429       9.34279622      14.65243561
C        1.69371413       8.21840714      18.63357513
H        0.82545993       8.87416094      18.57449923
H        1.39495142       7.25677609      19.04995832
H        2.44907876       8.67270109      19.27420735
H        2.10536639       8.06999042      17.63563562
C        1.18670342      11.80304942       1.17441602
H        2.11050976      12.01262881       1.71295729
H        0.96503753      12.62849852       0.49849711
H        0.36974517      11.68692405       1.88607781
H        1.30152122      10.88414627       0.60013189
C        1.22415769      11.92429598       4.53486310
H        0.98565390      12.76926326       5.18024253
H        1.99957463      12.21553269       3.82685313
H        0.33085535      11.61971774       3.99024269
H        1.58054689      11.09267023       5.14211405
C        1.71684919      11.34590262       8.01873140
H        1.04588220      10.59773411       7.59752414
H        1.87568032      11.13705770       9.07633475
H        1.27413525      12.33521662       7.90634569
H        2.67169900      11.31360204       7.49472102
C        1.44485702      11.67088031      11.63907099
H        0.93835357      12.41767374      11.02823371
H        2.05065241      12.16999139      12.39489402
H        2.08611430      11.05808875      11.00610655
H        0.70430781      11.03776734      12.12704969
C        1.56855447      11.90126134      15.02108439
H        0.88453557      11.26669550      15.58394558
H        1.15668638      12.08989383      14.03004915
H        2.53192335      11.40122263      14.92490720
H        1.70107256      12.84723338      15.54543562
C        1.74832068      11.93122131      17.85350609
H        2.09316009      11.23715091      17.08752930
H        0.66535935      12.03371480      17.78980183
H        2.21491729      12.90374367      17.69905150
H        2.01984598      11.55027585      18.83764172
C        1.97550829      14.81143335       1.98255653
H        2.81085093      14.13789037       2.17205822
H        1.86755067      14.96309467       0.90891209
H        2.16370398      15.76890713       2.46752531
H        1.05992758      14.37584125       2.38173049
C        1.80660202      14.67088482       5.16639291
H        1.60161791      15.22898425       4.25322539
H        2.87799900      14.49010498       5.24882793
H        1.27875884      13.71808614       5.13598504
H        1.46803231      15.24636392       6.02753329
C        1.21758547      14.77706106       8.20551882
H        2.29066652      14.78000441       8.01615997
H        1.02874723      14.42732010       9.22010729
H        0.72520302      14.11359185       7.49507072
H        0.82572511      15.78732787       8.09073731
C        1.46524057      14.66690047      11.94594695
H        0.91618636      13.85992815      11.46148486
H        1.95708510      15.27717063      11.18896104
H        2.21431394      14.24555070      12.61581398
H        0.77337688      15.28495241      12.51752793
C        2.14651916      14.71268590      14.58038327
H        1.76087274      13.69357132      14.58750335
H        1.85861488      15.20350618      13.65109593
H        3.23319801      14.69037944      14.65784210
H        1.73339100      15.26328665      15.42509169
C        2.11026985      15.31820722      18.45208010
H        2.77829506      14.69352641      19.04443521
H        2.60943406      16.25609141      18.21005386
H        1.20529556      15.52510021      19.02268084
H        1.84805471      14.79811083      17.53115049
C        1.82392769      18.41868451       1.32442442
H        1.09348818      18.92500650       0.69397654
H        2.31428343      19.14739641       1.96932643
H        2.56860831      17.92985422       0.69683850
H        1.31933085      17.67248092       1.93755623
C        1.73284103      17.90182322       4.99099409
H        0.85144909      18.49613886       5.23037987
H        1.83170526      17.81828530       3.90904416
H        1.62894978      16.90733991       5.42409676
H        2.61925998      18.38552882       5.40045557
C        1.72594909      17.71541063       8.54600434
H        1.81951128      17.17130941       7.60655325
H        0.99767018      18.51763018       8.43015100
H        2.69237644      18.13872947       8.81837853
H        1.39423844      17.03397344       9.32893460
C        1.34473665      18.37688596      11.28258977
H        1.04999183      17.33444220      11.16509566
H        1.76715888      18.74256639      10.34706550
H        2.09012351      18.45667301      12.07341265
H        0.47167239      18.97386225      11.54478526
C        1.23029737      18.20553474      15.13785587
H        1.17511109      17.95077002      16.19588129
H        2.07082480      18.87827049      14.96960421
H        0.30600400      18.69595236      14.83365083
H        1.36924959      17.29714609      14.55228716
C        1.87935768      17.79620261      18.10138458
H        2.04961451      17.55652907      17.05212885
H        2.47529692      17.13221744      18.72696311
H        0.82339315      17.66642274      18.33689351
H        2.16912617      18.82964119      18.28955285
C        5.22921704       2.06748048       1.28505084
H        5.16371100       3.15049260       1.18424364
H        5.89350111       1.67078785       0.51776341
H        4.23761206       1.63115334       1.16797584
H        5.62204400       1.81748815       2.27022046
C        5.09828880       1.65164665       4.63104150
H        5.93702347       1.16147489       5.12462449
H        4.17493431       1.40724774       5.15549744
H        5.03215931       1.30711684       3.59939502
H        5.24903810       2.73074714       4.64464906
C        4.92578483       1.66246887       8.56290228
H        5.43722368       2.59894630       8.34197538
H        5.62577014       0.96639375       9.02427887
H        4.54124512       1.23182397       7.63875805
H        4.09890036       1.85271146       9.24659681
C        5.27114243       1.64397484      12.07064690
H        4.78689447       0.78742470      11.60246516
H        6.24771032       1.80339373      11.61428175
H        5.39497399       1.45352778      13.13636921
H        4.65499096       2.53155313      11.92947149
C        4.94654430       1.96640000      14.99759171
H        4.77813978       1.46735201      15.95150963
H        3.98774424       2.21683165      14.54443080
H        5.50001955       1.30315249      14.33341081
H        5.52027362       2.87826384      15.16101559
C        5.29780675       1.53768952      18.03232318
H        6.13883138       2.08584472      17.60856402
H        4.37601359       2.08976430      17.85099699
H        5.44512791       1.41922495      19.10546390
H        5.23125412       0.55592412      17.56426782
C        4.88832083       5.34005097       1.24474557
H        5.29815859       4.64771573       1.97964236
H        5.70239001       5.87343634       0.75468456
H        4.23448595       6.05462325       1.74399981
H        4.31824875       4.78442857       0.50065556
C        4.78867847       5.25972500       4.69239593
H        5.48672129       4.53755572       5.11497862
H        5.34445473       6.05139642       4.19066146
H        4.18385587       5.68998491       5.49016431
H        4.13968200       4.75996293       3.97377932
C        4.58046670       4.87274951       7.77903861
H        4.84633409       5.86129906       7.40560494
H        4.45911793       4.91378837       8.86114704
H        5.37055999       4.16531925       7.52871205
H        3.64585479       4.55059138       7.32069039
C        5.16751871       5.28401840      12.06382775
H        5.27972275       6.36168845      12.17961161
H        4.11472375       5.04165836      11.92151557
H        5.53822698       4.78217517      12.95719057
H        5.73740137       4.95055163      11.19699325
C        5.43583424       4.96880455      15.14713978
H        4.91359121       5.91562806      15.01239621
H        6.40956685       5.01863029      14.66059013
H        4.84929628       4.16425648      14.70437122
H        5.57088261       4.77670338      16.21120155
C        5.16531696       4.76051367      18.47134863
H        5.43049194       5.77200581      18.16486169
H        5.49530985       4.05250587      17.71161314
H        4.08452413       4.68850561      18.58996593
H        5.65094192       4.52903739      19.41895377
C        4.54186496       8.25158840       1.58408871
H        4.68569253       8.51841195       0.53743347
H        4.54733134       7.16675445       1.68643035
H        3.58650884       8.64434786       1.93108013
H        5.34792715       8.67683931       2.18141088
C        5.39589902       8.45802307       5.28667801
H        5.69973551       7.57050281       5.84107819
H        5.90956078       9.33091569       5.68864620
H        4.31900278       8.59459845       5.38159923
H        5.65529700       8.33607530       4.23538842
C        5.17516610       8.34380012       8.59894084
H        4.36844435       9.04577224       8.80823381
H        5.30646655       8.25222694       7.52109905
H        4.92677901       7.36937950       9.01867490
H        6.09897447       8.70782180       9.04775560
C        4.81674955       7.94856954      11.47778722
H        5.73556697       7.44116633      11.77050704
H        5.03906332       8.68710404      10.70803937
H        4.38478183       8.44682626      12.34526201
H        4.10758607       7.21918154      11.08734047
C        4.59510874       8.49980291      14.67707468
H        5.62450967       8.38405891      15.01516554
H        4.22130070       7.54183597      14.31660933
H        4.55787906       9.23112292      13.87013394
H        3.97674554       8.84219383      15.50638993
C        4.94976017       8.67129955      17.79445939
H        5.00096270       9.08107645      18.80283907
H        4.75700896       9.47552843      17.08493050
H        4.14493041       7.93869485      17.74053560
H        5.89613862       8.18989848      17.54953241
C        5.13873361      11.44913546       1.48613242
H        4.34208744      10.72719392       1.30858337
H        4.71001092      12.37845186       1.86021296
H        5.66791619      11.64279220       0.55348498
H        5.83491991      11.04810386       2.22224835
C        4.49248372      11.25107166       5.34589975
H        4.00540902      10.40322244       4.86498572
H        3.89527205      11.57851109       6.19648191
H        4.58662255      12.06880673       4.63188601
H        5.48263127      10.95374640       5.69024535
C        5.02249832      11.10090402       8.48676453
H        4.19622246      10.80899535       9.13439552
H        4.62834231      11.49718433       7.55136551
H        5.64575448      10.23157000       8.27897016
H        5.61967403      11.86586640       8.98232694
C        4.54184056      11.33353082      11.65921714
H        4.69337817      10.82722018      12.61213595
H        5.02428056      10.76462897      10.86488050
H        4.97534559      12.33217779      11.70554199
H        3.47435790      11.41009634      11.45431014
C        4.61958638      11.67469109      15.09030721
H        4.77474311      10.59876462      15.01496131
H        4.15060133      12.03890158      14.17664857
H        5.57958620      12.17129881      15.22868891
H        3.97341489      11.88979935      15.94093005
C        5.36346583      11.42820307      17.94632484
H        5.17752407      10.87660383      17.02516670
H        4.45778473      11.43937442      18.55211798
H        5.65188161      12.45099264      17.70531407
H        6.16667289      10.94584138      18.50270060
C        4.72300270      14.47109624       1.17630248
H        4.98853920      13.58212759       1.74778605
H        4.56764449      14.19899516       0.13265828
H        5.52885560      15.20131762       1.24519527
H        3.80697151      14.90194460       1.57957029
C        4.57536606      14.84788230       4.86054715
H        3.97503663      14.68956074       3.96505442
H        4.25252267      15.76243736       5.35726594
H        5.62534457      14.93652918       4.58295891
H        4.44856036      14.00300190       5.53690934
C        5.18933750      14.48117573       8.12902503
H        5.18668947      15.37470976       8.75269024
H        4.29661289      14.47164649       7.50426881
H        5.19807763      13.59536497       8.76355737
H        6.07597001      14.48298169       7.49558371
C        4.66131309      15.33738271      11.25027886
H        3.95180805      14.58795252      11.60002929
H        4.79457061      16.09809621      12.01899583
H        4.28011918      15.80225329      10.34145824
H        5.61875451      14.86122881      11.04063208
C        4.93216822      15.21720332      15.07488665
H        4.07363276      14.78065207      15.58450245
H        5.67916789      14.44458156      14.89484368
H        5.36333327      16.00149344      15.69646053
H        4.61253893      15.64208621      14.12373996
C        5.37524914      15.21601697      17.88686114
H        6.09471439      14.67993439      18.50520862
H        5.89403074      15.97330048      17.29970213
H        4.63413062      15.69610680      18.52531667
H        4.87812081      14.51472620      17.21721716
C        4.86262466      17.90980552       2.08990426
H        4.39689400      17.44770413       1.21988953
H        4.76970111      17.24455642       2.94791196
H        4.36684831      18.85532118       2.30801965
H        5.91705522      18.09164036       1.88379589
C        5.45247774      17.97189678       5.29354274
H        5.01182899      18.48569731       6.14747837
H        6.51192557      17.79902234       5.48076748
H        5.33685728      18.58602470       4.40087977
H        4.94929912      17.01684277       5.14504533
C        5.18015747      18.68272087       8.34929237
H        4.16751539      18.67934360       7.94690826
H        5.61330630      17.68766989       8.25119030
H        5.15194994      18.96446030       9.40152599
H        5.78785827      19.39940969       7.79754492
C        5.35093556      18.33613683      11.44272306
H        6.00483119      18.60689422      12.27126353
H        4.63777843      19.14061105      11.26496897
H        4.81257455      17.42128900      11.68887188
H        5.94855807      18.17575307      10.54578786
C        4.63753104      18.28222166      14.93110833
H        4.02864479      18.81525149      14.20137886
H        5.25457463      18.99414054      15.47864562
H        5.27829317      17.56684981      14.41629245
H        3.98861158      17.75264479      15.62811640
C        5.08922340      18.12011728      18.31896725
H        5.61180185      18.88656423      18.89066579
H        4.31645699      18.58616363      17.70822897
H        4.63053461      17.40640819      19.00277446
H        5.79810016      17.60133309      17.67419979
C        8.29514103       1.61817766       1.44330602
H        8.68033404       1.70477007       2.45893216
H        9.06041527       1.18418309       0.80036558
H        8.02597277       2.60642284       1.07143468
H        7.41384201       0.97733465       1.44249165
C        7.97286014       2.12360008       5.13511117
H        7.75575878       3.13086566       5.48958461
H        7.06614193       1.67946921       4.72525967
H        8.33178994       1.51587226       5.96529468
H        8.73774989       2.16819318       4.36030571
C        8.25136785       1.41501014       7.93378733
H        7.33406266       1.98911825       8.06153488
H        8.11456447       0.68430435       7.13709275
H        8.48909410       0.89859672       8.86339573
H        9.06775017       2.08802124       7.67312595
C        8.14499108       1.73024542      11.64832799
H        8.12842988       0.64512217      11.74631586
H        9.15046701       2.05566681      11.38283327
H        7.85415780       2.18490548      12.59493700
H        7.44690963       2.03528724      10.86922585
C        8.64956124       2.04702856      14.44687349
H        7.80768163       2.24284894      13.78335148
H        9.45521960       2.74723397      14.22779501
H        9.00282495       1.02757298      14.29428436
H        8.33251880       2.17045835      15.48206311
C        8.38120426       1.34878969      17.82586810
H        7.75272032       2.23769772      17.77876375
H        7.77937110       0.46655535      17.60947079
H        8.81045621       1.25989395      18.82346956
H        9.18226941       1.43101173      17.09176829
C        7.85334908       5.01584244       1.34901605
H        8.62004269       5.72291001       1.66461826
H        7.27720152       5.44622321       0.53036181
H        7.19008009       4.80144253       2.18655727
H        8.32607202       4.09279403       1.01452686
C        8.17429942       4.76066472       4.74382741
H        8.14157920       5.55649085       5.48743923
H        7.24966180       4.76403316       4.16728400
H        8.28632762       3.79961784       5.24503293
H        9.01962905       4.92251701       4.07555350
C        8.13161264       5.10161644       8.44979779
H        8.56191629       6.07757581       8.67275618
H        7.16388495       5.01024764       8.94226427
H        8.79850013       4.31942217       8.81146277
H        8.00214917       4.99922014       7.37270792
C        8.36651761       4.80658990      11.38993004
H        8.82875525       5.77116650      11.59800864
H        8.76467151       4.05785261      12.07420654
H        8.58471635       4.51313187      10.36346033
H        7.28792734       4.88420860      11.52404466
C        8.15890988       5.03046870      15.37784373
H        7.86470937       5.33840476      16.38083417
H        8.08128275       3.94687803      15.29314624
H        9.18786879       5.33661236      15.19106040
H        7.50177863       5.49997967      14.64633410
C        8.64786848       5.40378095      17.96908540
H        9.57347264       4.95880287      18.33325545
H        8.81448402       5.83076284      16.98050354
H        8.32779194       6.18823918      18.65431869
H        7.87572533       4.63731889      17.90826393
C        8.74359962       8.67018206       2.11250541
H        7.98797268       8.40309884       1.37422169
H        9.64124154       9.01996700       1.60333173
H        8.98591353       7.79634845       2.71671328
H        8.35927071       9.46131397       2.75575496
C        8.42654252       8.02556540       5.39641254
H        8.05494237       8.43784050       6.33412835
H        9.50856682       7.91025551       5.45381834
H        8.17607621       8.70042857       4.57836933
H        7.96658469       7.05373702       5.21933414
C        7.96081838       8.07260444       8.34914750
H        7.51527860       8.88719158       8.91950744
H        7.24741499       7.71659118       7.60639685
H        8.22081139       7.25692379       9.02326699
H        8.85976853       8.42971120       7.84741874
C        8.53562516       8.38861700      11.41072943
H        7.93293864       8.76417641      12.23722351
H        9.47375553       8.94104906      11.36491907
H        7.99135515       8.51890559      10.47576236
H        8.74445130       7.33033695      11.56501276
C        8.54936322       8.60358248      14.65668429
H        7.85243506       9.09302692      15.33646636
H        9.22516896       9.34588671      14.23284540
H        7.99401256       8.11806157      13.85467216
H        9.12583630       7.85735473      15.20275325
C        8.28731978       7.97199306      18.48355546
H        7.41227233       8.53535748      18.16062998
H        8.96003905       8.62956882      19.03347480
H        8.80347196       7.57131454      17.61153939
H        7.97349577       7.15173139      19.12857768
C        8.36897220      11.80618580       1.30498041
H        8.70071894      10.93291758       0.74398569
H        7.30511528      11.71547735       1.52257820
H        8.54356226      12.70513151       0.71440163
H        8.92649233      11.87121678       2.23895614
C        8.67241376      11.53357922       4.87241689
H        8.88265479      12.44159510       5.43692929
H        7.73022252      11.64857190       4.33723400
H        8.60057803      10.68878196       5.55690618
H        9.47619970      11.35536793       4.15859810
C        8.04158132      11.94510816       8.04750216
H        7.12700728      12.05831008       7.46603159
H        8.25202664      12.87342039       8.57789593
H        8.87036693      11.71262499       7.37934472
H        7.91692444      11.13607717       8.76673641
C        8.66791631      11.25764589      11.23761357
H        9.01205193      11.23215631      12.27119440
H        8.96183533      10.33706302      10.73411862
H        9.11530377      12.10983166      10.72673958
H        7.58247420      11.35153255      11.21840169
C        7.94331612      11.89038463      14.42139723
H        7.00040198      11.66667218      14.91962813
H        8.29073733      12.87679948      14.72742439
H        7.79605510      11.87593863      13.34182607
H        8.68607009      11.14212824      14.69671031
C        8.13216579      11.31008087      17.98891035
H        8.87286496      10.51814775      17.88132294
H        8.23266946      11.77037593      18.97145595
H        7.13250890      10.88890060      17.88565502
H        8.29061984      12.06289918      17.21720751
C        8.38565497      15.05845749       1.81421059
H        8.13633586      14.15754490       1.25424196
H        7.84560849      15.90733714       1.39573536
H        9.45775883      15.24189690       1.74854727
H        8.10291670      14.92705101       2.85831776
C        8.56876378      14.98337682       4.59830093
H        8.87628278      15.93154379       4.15809662
H        7.67201504      14.62308569       4.09491202
H        8.35798979      15.12620458       5.65780219
H        9.36876749      14.25267322       4.48239287
C        8.24806370      15.28817730       8.23521132
H        8.79043856      15.27664615       7.29019021
H        8.30402100      14.30333403       8.69815936
H        7.20497039      15.54477851       8.05223442
H        8.69282484      16.02795052       8.90026131
C        8.09370875      15.28260775      11.35269840
H        8.89628674      15.77637247      11.89990343
H        8.50564768      14.46252401      10.76521448
H        7.61255948      15.99965120      10.68808389
H        7.36034111      14.89188332      12.05759179
C        8.43106328      15.08156844      14.98112260
H        9.30846274      15.48947022      15.48227596
H        8.06026171      15.80291247      14.25342943
H        7.65454665      14.87669453      15.71761223
H        8.70098202      14.15719653      14.47117278
C        7.96030859      14.81688943      18.08477880
H        6.87710064      14.82630963      18.20284730
H        8.25526897      13.94031351      17.50860052
H        8.43237348      14.78211686      19.06626440
H        8.27649128      15.71881771      17.56140297
C        8.15357276      18.41260810       1.38784846
H        8.29857910      18.50782712       0.31208135
H        7.11746462      18.64089759       1.63630811
H        8.81310928      19.10807209       1.90622072
H        8.38513806      17.39363562       1.69678367
C        8.20511827      17.84486051       5.12769617
H        8.54743374      18.67073253       5.75069207
H        7.38089761      18.18126913       4.49931895
H        7.86705360      17.02657641       5.76290620
H        9.02508811      17.50086398       4.49786745
C        8.13189854      18.61778723       8.52504195
H        8.79593018      18.58387953       7.66174558
H        8.63581332      18.18365761       9.38815824
H        7.22680208      18.05055372       8.30960071
H        7.86904856      19.65305807       8.74066327
C        7.96227592      17.94926347      11.81582010
H        8.45179309      17.30284451      12.54375130
H        7.73927223      17.37821568      10.91496376
H        8.62220435      18.77946031      11.56554813
H        7.03583402      18.33653339      12.23901720
C        8.52993503      17.82533666      14.64456169
H        8.90698472      16.97389724      15.21047053
H        7.90268402      18.44070877      15.28895419
H        7.94220781      17.46815351      13.79936036
H        9.36786357      18.41858712      14.27946167
C        8.37621090      18.49308844      17.89514360
H        8.43184232      19.56890268      18.05914737
H        9.23996206      18.16892019      17.31530116
H        7.46299743      18.25548744      17.35020756
H        8.37004181      17.97904343      18.85591832
C       11.55801638       1.97526984       1.33051925
H       11.81304902       2.79624075       0.66094215
H       11.70041314       2.29145364       2.36353394
H       12.20157962       1.12153288       1.11997724
H       10.51702373       1.69185210       1.17762368
C       11.09816707       1.44924842       4.86658971
H       11.19993566       2.49083344       5.17008959
H       10.10670733       1.08723211       5.13736666
H       11.85448769       0.84841248       5.37091468
H       11.23153759       1.37051565       3.78798792
C       11.56095369       1.28750414       8.14226897
H       12.43458591       0.66149314       8.32183886
H       11.01995169       1.43284773       9.07691353
H       10.90888145       0.80167576       7.41691323
H       11.88039571       2.25399991       7.75341028
C       11.50583441       2.11409080      11.54450475
H       12.36269101       2.35146165      10.91456807
H       11.72554907       1.22651519      12.13721326
H       10.63500012       1.92555938      10.91723135
H       11.30009745       2.95282696      12.20900631
C       11.11646419       1.81983918      14.61764209
H       11.43234249       2.82519439      14.89486071
H       10.85290669       1.26140380      15.51544816
H       11.93070472       1.31291852      14.10052297
H       10.24990287       1.87983999      13.95973651
C       11.33280742       1.87888870      18.18162750
H       11.07821888       2.87349731      18.54673947
H       10.55471939       1.53101247      17.50270960
H       11.41342155       1.19236808      19.02398086
H       12.28486986       1.91867694      17.65308007
C       11.94325796       5.35279470       1.66506976
H       11.72867701       4.37111953       2.08654010
H       11.11556459       6.02858116       1.87862241
H       12.07141376       5.26490676       0.58654291
H       12.85737646       5.74657136       2.10857363
C       11.93476262       5.11430384       4.74093379
H       11.05984945       5.54252802       4.25254933
H       12.42835754       5.88015306       5.33860209
H       12.62609480       4.74126627       3.98577079
H       11.62474867       4.29326801       5.38681295
C       11.51458133       5.29999951       7.79318030
H       10.77296914       6.03662196       8.10102294
H       12.41051001       5.81136908       7.44220833
H       11.10683709       4.68833819       6.98882749
H       11.76800907       4.66366879       8.64066243
C       11.28628226       5.39167129      11.28709576
H       12.23011088       4.89395212      11.50807431
H       10.48339019       4.65525222      11.26661036
H       11.35325146       5.88309847      10.31684691
H       11.07837649       6.13438236      12.05685146
C       11.55225632       5.29274535      14.91918962
H       11.25630501       5.10965804      15.95178839
H       12.63843167       5.25523088      14.84055030
H       11.19937425       6.27594284      14.60908429
H       11.11491433       4.53014963      14.27533549
C       12.02463503       5.26529289      17.83056113
H       11.95787062       6.21797744      18.35525441
H       11.26172153       5.22428778      17.05361200
H       11.86829948       4.45008646      18.53651159
H       13.01064848       5.16881989      17.37686652
C       11.47131020       7.95135672       1.91539556
H       11.60926018       6.89814067       1.67234385
H       12.29114779       8.53193673       1.49330368
H       11.45788149       8.07558498       2.99787206
H       10.52695135       8.29976449       1.49806265
C       11.48110209       8.56324943       4.93038948
H       11.23831754       7.65017767       4.38750459
H       11.26323659       8.42518041       5.98908677
H       10.88358386       9.38710346       4.54102479
H       12.53927036       8.79053617       4.80394177
C       11.50555065       8.75952745       8.19128325
H       11.28998009       9.34321539       9.08582565
H       11.95180738       9.40497099       7.43522378
H       10.58059838       8.33269390       7.80444375
H       12.19981674       7.95722951       8.43963984
C       11.65065393       8.42025278      11.28712778
H       12.05684417       7.78042466      12.07006956
H       12.44995739       8.71475962      10.60760731
H       11.21019348       9.30964912      11.73694676
H       10.88562067       7.87617772      10.73388749
C       11.21168525       8.62079964      14.65527548
H       11.88144009       8.30177627      15.45341138
H       10.25477353       8.92010735      15.08201102
H       11.05720606       7.79651046      13.95953709
H       11.65332133       9.46480447      14.12614242
C       11.92890371       7.91443964      18.45142239
H       11.28610660       8.42947902      19.16480496
H       11.31401106       7.36245338      17.74107981
H       12.57994074       7.22139326      18.98359329
H       12.53555642       8.64443290      17.91621150
C       11.92809512      11.40905556       1.31226837
H       11.26737088      12.21032268       0.98244592
H       12.46093994      11.72367832       2.20918379
H       12.64567889      11.18242332       0.52418225
H       11.33839076      10.51979790       1.53326151
C       11.89758051      11.17791026       5.37482393
H       11.19260060      11.26628531       6.20099676
H       12.69024116      10.48137103       5.64665211
H       12.33018861      12.15476607       5.16041466
H       11.37729166      10.80921865       4.49123217
